n = 50;
C = 249;
w = [201,371,40,76,271,109,95,18,426,26,333,87,106,44,299,275,213,270,188,461,381,478,452,207,463,262,426,301,304,151,400,204,305,97,326,213,216,230,108,161,65,157,338,373,450,272,352,176,283,421];
p = [1015,1865,210,390,1365,555,485,100,2140,140,1675,445,540,230,1505,1385,1075,1360,950,2315,1915,2400,2270,1045,2325,1320,2140,1515,1530,765,2010,1030,1535,495,1640,1075,1090,1160,550,815,335,795,1700,1875,2260,1370,1770,890,1425,2115];
